data;

param w := 17;
param n := 12;
param min_h := 17;
param max_h := 28;

set BLOCKS := 1 2 3 4 5 6 7 8 9 10 11 12 ;

param:	width	height :=
	1	4	14
	2	7	6
	3	4	8
	4	3	9
	5	3	8
	6	7	3
	7	3	7
	8	3	6
	9	3	5
	10	3	4
	11	4	3
	12	3	3;